1 3 100 826017.98
1 3 200 835860.06
1 3 300 854207.49
2 3 100 1172737.32
2 3 200 1165549.49
2 3 300 1168129.69
3 3 100 1147972.97
3 3 200 1144468.36
3 3 300 1153592.76
4 3 100 1060707.81
4 3 200 1053468.06
4 3 300 1077239.23
5 3 100 989007.33
5 3 200 961099.59
5 3 300 1002577.26
